data;

param num_top:=5;

#nodes and edges of the physical network
param n := 10;

set E := (1,2) (1,3) (1,7) (2,4) (2,7) (3,5) (4,8) (5,6) (5,7) (6,7) (6,9) (7,8) (7,9) (8,10) (9,10) ;

#nodes and edges of the virtual networks
set Nl[1] := 5 2 6 10 ;
set Nl[2] := 9 5 2 10 ;
set Nl[3] := 1 6 7 9 2 ;
set Nl[4] := 2 3 10 9 7 ;
set Nl[5] := 9 6 10 7 ;

set El[1] := (2,5) (2,6) (6,10) (5,10) ;
set El[2] := (5,9) (2,5) (2,10) (9,10) (2,9) (5,10) ;
set El[3] := (1,6) (6,7) (7,9) (2,9) (1,2) ;
set El[4] := (2,3) (3,10) (9,10) (7,9) (2,7) (3,7) (3,9) (2,10) (2,9) (7,10) ;
set El[5] := (6,9) (6,10) (7,10) (7,9) (9,10) (6,7) ;
